objectiveMultipliers = [100,1,10000];
paintBatchLimit = 15;
Constraints = {HPRC1,HPRC2,HPRC3,HPRC4,HPRC5,LPRC1,LPRC2,LPRC3,LPRC4,LPRC5,LPRC6,LPRC7};
ratios = [|1,20,1|2,4,1|1,4,1|1,2,1|1,10,1|1,43,0|1,122,0|1,6,0|4,5,0|1,3,0|1,7,0|1,2,0|];
associatedConstraints = [|0,0,0,0,0,0,0,0,1,0,0,0|0,0,0,0,0,0,0,0,1,0,0,0|0,0,0,0,0,0,0,0,1,0,0,0|0,0,0,0,0,0,0,0,1,0,0,0|0,0,0,0,0,0,0,0,1,0,0,0|0,0,0,0,0,0,0,0,1,0,0,0|0,0,0,0,0,0,0,0,1,0,0,0|0,0,0,0,0,0,0,0,1,0,0,0|0,0,0,0,0,0,0,0,1,0,0,0|0,0,0,0,0,0,0,1,1,0,0,0|0,0,0,0,0,0,0,0,0,0,0,1|0,0,0,0,0,0,0,0,1,0,0,0|0,0,0,0,0,0,0,0,1,0,0,0|0,0,0,0,0,0,0,0,1,0,0,0|0,0,0,0,0,0,0,0,1,0,0,0|0,0,0,0,0,0,0,0,0,0,0,1|0,0,0,0,0,0,0,0,1,0,0,0|0,0,0,0,0,0,0,0,1,0,0,0|0,0,0,1,0,0,0,1,0,1,1,0|0,0,0,0,0,0,0,0,1,0,0,0|0,0,0,0,0,0,0,0,1,0,0,0|0,0,0,0,0,0,0,0,1,0,0,0|0,0,0,0,0,0,0,0,1,0,0,0|0,0,0,0,0,0,0,0,0,0,0,1|0,0,0,0,0,0,0,0,0,0,0,0|0,0,0,0,0,0,0,0,0,0,0,0|0,0,0,0,0,0,0,0,0,0,0,0|0,0,0,1,0,0,0,0,0,0,0,0|0,0,0,0,0,0,0,0,0,0,0,0|0,0,0,0,0,0,0,0,0,0,0,0|0,0,0,0,0,0,0,0,0,0,0,0|0,0,0,0,0,0,0,0,0,0,0,0|0,0,0,0,0,0,0,0,0,0,0,0|0,0,0,0,0,0,0,0,0,0,0,0|0,0,0,1,0,0,0,0,0,0,0,0|0,0,0,0,0,0,0,0,0,1,0,0|0,0,0,1,0,0,0,0,0,0,0,0|0,0,0,0,0,0,0,0,0,0,0,0|0,0,0,0,0,0,0,0,0,0,0,0|0,0,0,0,0,0,0,0,0,0,0,0|0,0,0,0,0,0,0,0,0,0,0,0|0,0,0,0,0,0,0,0,1,0,0,0|0,0,0,1,0,0,0,0,0,0,0,0|0,0,0,0,0,0,0,0,1,0,0,0|0,0,0,0,0,0,0,0,0,0,0,0|0,0,0,0,0,0,0,0,1,0,0,0|0,0,0,0,0,0,0,0,1,0,0,0|0,0,0,0,0,0,0,0,1,0,0,0|0,0,0,0,0,0,0,0,0,1,0,1|0,0,0,0,0,0,0,0,0,0,0,0|0,0,0,0,0,0,0,0,0,0,0,0|0,0,0,1,0,0,0,0,0,0,0,0|0,0,0,0,0,0,0,0,1,0,0,0|0,0,0,0,0,0,0,0,0,0,0,0|0,0,0,0,0,0,0,0,1,0,0,0|0,0,0,0,0,0,0,0,1,0,0,0|0,0,0,0,0,0,0,0,1,0,0,0|0,0,0,1,0,0,0,1,0,1,1,0|0,0,0,0,0,0,0,0,0,0,1,0|0,0,0,1,0,0,0,1,0,1,1,0|0,0,0,0,0,0,0,0,1,0,0,0|0,0,0,0,0,0,0,0,1,0,0,0|0,0,0,0,0,0,0,0,1,0,0,0|0,0,0,0,0,0,0,0,1,0,0,0|0,0,0,0,0,0,0,0,1,0,0,0|0,0,0,0,0,0,0,0,1,0,0,0|0,0,0,0,0,0,0,0,1,0,0,0|0,0,0,0,0,0,0,0,0,1,0,1|0,0,0,0,0,0,0,0,1,0,0,0|0,0,0,0,0,0,0,0,1,0,0,0|0,0,0,0,0,0,0,0,1,0,0,0|0,0,0,0,0,0,0,0,0,1,0,0|0,0,0,0,0,0,0,0,1,0,0,0|0,0,0,0,0,0,0,0,1,0,0,0|0,0,0,0,0,0,0,0,1,0,0,0|0,0,0,1,0,0,0,0,0,0,0,0|0,0,0,0,0,0,0,0,1,0,0,0|0,0,0,0,0,0,0,0,1,0,0,0|0,0,0,0,0,0,0,0,1,0,0,0|0,0,0,0,0,0,0,0,1,0,0,0|0,0,0,0,0,0,0,1,0,1,1,1|0,0,0,0,0,0,0,0,1,0,0,0|0,0,0,0,0,0,0,0,1,0,0,0|0,0,0,0,0,0,0,0,1,0,0,0|0,0,0,0,0,0,0,0,1,0,0,0|0,0,0,0,0,0,0,0,1,0,0,0|0,0,0,0,0,0,0,0,1,0,0,0|0,0,0,0,0,0,0,0,1,0,0,0|0,0,0,0,0,0,0,0,1,0,0,0|0,0,0,0,0,0,0,0,1,0,0,0|0,0,0,0,0,0,0,0,1,0,0,0|0,0,0,0,0,0,0,0,1,0,0,0|0,0,0,0,0,0,0,0,1,0,0,0|0,0,0,0,0,0,0,0,1,0,0,0|0,0,0,0,0,0,0,0,1,0,0,0|0,0,0,0,0,0,0,1,0,1,0,1|0,0,0,0,0,0,0,0,1,0,0,0|0,0,0,0,0,0,0,0,1,0,0,0|0,0,0,0,0,0,0,0,0,0,0,0|0,0,0,0,0,0,0,0,0,0,0,0|0,0,0,0,0,0,0,0,0,0,0,0|0,0,0,1,0,0,0,0,0,0,0,0|0,0,0,0,0,0,0,0,0,0,0,0|0,0,0,0,0,0,0,0,0,0,0,0|0,0,0,1,0,0,0,1,0,0,1,0|0,0,0,0,0,0,0,0,0,1,0,0|0,0,0,0,0,0,0,0,1,0,0,0|0,0,0,0,0,0,0,0,1,0,0,0|0,0,0,1,0,0,0,0,0,1,0,1|0,0,0,0,0,0,0,0,1,0,0,0|0,0,0,0,0,0,0,0,0,0,0,0|0,0,0,0,0,0,0,0,0,1,0,1|0,0,0,0,0,0,0,0,1,0,0,0|0,0,0,0,0,0,0,0,0,0,0,0|0,0,0,0,0,0,0,0,0,1,0,0|0,0,0,0,0,0,0,0,1,0,0,0|0,0,0,0,0,0,0,0,1,0,0,0|0,0,0,0,0,0,0,0,1,0,0,0|0,0,0,0,0,0,0,0,0,1,0,0|0,0,0,0,0,0,0,0,1,0,0,0|0,0,0,0,0,0,0,0,1,0,0,0|0,0,0,0,0,0,0,0,0,1,0,0|0,0,0,0,0,0,0,0,0,0,0,0|0,0,0,0,0,0,0,0,1,0,0,0|0,0,0,1,0,0,0,1,0,1,1,0|0,0,0,0,0,0,0,0,1,0,0,0|0,0,0,0,0,0,0,0,0,1,0,1|0,0,0,0,0,0,0,0,1,0,0,0|0,0,0,0,0,0,0,0,0,0,0,0|0,0,0,0,0,0,0,1,1,1,0,0|0,0,0,0,0,0,0,0,1,0,0,0|0,0,0,0,0,0,0,0,1,0,0,0|0,0,0,0,0,0,0,0,0,1,0,1|0,0,0,0,0,0,0,0,1,0,0,0|0,0,0,0,0,0,0,0,1,0,0,0|0,0,0,1,0,0,0,1,0,1,1,0|0,0,0,0,0,0,0,0,0,1,0,1|0,0,0,0,0,0,0,0,1,0,0,0|0,0,0,0,0,0,0,0,1,0,0,0|0,0,0,0,0,0,0,0,1,0,0,0|0,0,0,0,0,0,0,0,1,0,0,0|0,0,0,0,0,0,0,0,1,0,0,0|0,0,0,0,0,0,0,0,1,0,0,0|0,0,0,0,0,0,0,1,1,0,0,0|0,0,0,0,0,0,0,0,1,0,0,0|0,0,0,0,0,0,0,0,1,0,0,0|0,0,0,0,0,0,0,0,1,0,0,0|0,0,0,0,0,0,0,0,1,0,0,0|0,0,0,0,0,0,0,0,1,0,0,0|0,0,0,0,0,0,0,0,1,0,0,0|0,0,0,0,0,0,0,0,1,0,0,0|0,0,0,0,0,0,0,0,1,0,0,0|0,0,0,0,0,0,0,0,0,1,0,1|0,0,0,0,0,0,0,1,1,0,0,0|0,0,0,0,0,0,0,0,1,0,0,0|0,0,0,0,0,0,0,0,0,1,0,1|0,0,0,0,0,0,0,0,1,0,0,0|0,0,0,0,0,0,0,0,1,0,0,0|0,0,0,1,0,0,0,1,0,1,1,0|0,0,0,0,0,0,0,0,1,0,0,0|0,0,0,0,0,0,0,0,1,0,0,0|0,0,0,0,0,0,0,0,0,1,0,1|0,0,0,0,0,0,0,0,1,0,0,0|0,0,0,0,0,0,0,0,0,1,0,1|0,0,0,0,0,0,0,0,1,0,0,0|0,0,0,0,0,0,0,0,1,0,0,0|0,0,0,0,0,0,0,0,0,1,0,1|0,0,0,0,0,0,0,0,1,0,0,0|0,0,0,1,0,0,0,1,0,1,1,1|0,0,0,0,0,0,0,0,1,0,0,0|0,0,0,0,0,0,0,0,1,0,0,0|0,0,0,0,0,0,0,0,0,1,0,0|0,0,0,0,0,0,0,0,0,0,0,0|0,0,0,0,0,0,0,0,1,0,0,0|0,0,0,0,0,0,0,0,0,1,0,0|0,0,0,0,0,0,0,0,1,0,0,0|0,0,0,1,0,0,0,1,0,1,1,0|0,0,0,0,0,0,0,0,0,0,0,0|0,0,0,0,0,0,0,0,1,0,0,0|0,0,0,0,0,0,0,0,1,0,0,0|0,0,0,0,0,0,0,0,0,0,0,0|0,0,0,0,0,0,0,0,0,1,0,0|0,0,0,0,0,0,0,0,1,0,0,0|0,0,0,0,0,1,0,1,1,1,0,0|0,0,0,0,0,0,0,0,1,0,0,0|0,0,0,0,0,0,0,0,1,0,0,0|0,0,0,0,0,0,0,0,0,1,0,1|0,0,0,0,0,0,0,0,1,0,0,0|0,0,0,0,0,0,0,0,1,0,0,0|0,0,0,1,0,0,0,1,0,1,1,0|0,0,0,0,0,0,0,0,1,0,0,0|0,0,0,0,0,0,0,0,1,0,0,0|0,0,0,0,0,0,0,0,0,1,0,1|0,0,0,0,0,0,0,0,1,0,0,0|0,0,0,0,0,0,0,0,0,1,0,1|0,0,0,0,0,0,0,1,1,0,0,0|0,0,0,0,0,0,0,0,0,1,0,1|0,0,0,0,0,0,0,0,1,0,0,0|0,0,0,0,0,0,0,0,1,0,0,0|0,0,0,0,0,0,0,0,1,0,0,0|0,0,0,0,0,0,0,0,1,0,0,0|0,0,0,0,0,0,0,0,1,0,0,0|0,0,0,0,0,0,0,1,0,1,0,1|0,0,0,0,0,0,0,0,1,0,0,0|0,0,0,0,0,0,0,0,1,0,0,0|0,0,0,0,0,0,0,0,1,0,0,0|0,0,0,0,0,0,0,0,1,0,0,0|0,0,0,0,0,0,0,0,0,0,0,0|0,0,0,0,0,0,0,1,1,0,0,0|0,0,0,0,0,0,0,0,1,0,0,0|0,0,0,0,0,0,0,0,1,0,0,0|0,0,0,0,0,0,0,0,1,0,0,0|0,0,0,0,0,0,0,0,0,1,0,0|0,0,0,0,0,0,0,0,1,0,0,0|0,0,0,0,0,0,0,0,1,0,0,0|0,0,0,0,0,0,0,0,0,0,0,0|0,0,0,1,0,0,0,1,0,1,1,0|0,0,0,0,0,0,0,0,1,0,0,0|0,0,0,0,0,0,0,0,1,0,0,0|0,0,0,0,0,0,0,0,0,1,0,1|0,0,0,0,0,0,0,0,1,0,0,0|0,0,0,0,0,0,0,1,1,0,0,0|0,0,0,0,0,0,0,0,0,1,0,1|0,0,0,0,0,0,0,0,1,0,0,0|0,0,0,0,0,0,0,0,0,0,0,0|0,0,0,0,0,0,0,0,1,0,0,0|0,0,0,1,0,0,0,1,0,1,1,0|0,0,0,0,0,0,0,0,1,0,0,0|0,0,0,0,0,0,0,0,1,0,0,0|0,0,0,0,0,0,0,0,1,0,0,0|0,0,0,0,0,0,0,0,1,0,0,0|0,0,0,0,0,0,0,0,1,0,0,0|0,0,0,0,0,0,0,0,1,0,0,0|0,0,0,0,0,0,0,0,1,0,0,0|0,0,0,0,0,0,0,0,1,0,0,0|0,0,0,0,0,0,0,1,1,0,0,0|0,0,0,0,0,0,0,0,1,0,0,0|0,0,0,0,0,0,0,0,1,0,0,0|0,0,0,0,0,0,0,0,1,0,0,0|0,0,0,0,0,0,0,0,1,0,0,0|0,0,0,0,0,0,0,0,1,0,0,0|0,0,0,0,0,0,0,0,1,0,0,0|0,0,0,1,0,0,0,1,0,1,1,0|0,0,0,0,0,0,0,0,1,0,0,0|0,0,0,0,0,0,0,0,1,0,0,0|0,0,0,0,0,0,0,0,1,0,0,0|0,0,0,0,0,0,0,0,0,1,0,0|0,0,0,0,0,0,0,0,1,0,0,0|0,0,0,0,0,0,0,0,1,0,0,0|0,0,0,1,0,0,0,1,0,1,1,0|0,0,0,0,0,0,0,0,1,0,0,0|0,0,0,0,0,0,0,0,1,0,0,0|0,0,0,0,0,0,0,0,0,1,0,1|0,0,0,0,0,0,0,0,1,0,0,0|0,0,0,0,0,0,0,0,0,0,0,0|0,0,0,0,0,0,0,0,0,1,0,1|0,0,0,0,0,0,0,0,1,0,0,0|0,0,0,1,0,0,0,1,0,1,1,0|0,0,0,0,0,0,0,1,0,1,0,1|0,0,0,1,0,0,0,1,0,1,1,0|0,0,0,0,0,0,0,0,0,0,0,0|0,0,0,1,0,0,0,1,0,1,1,0|0,0,0,1,0,0,0,1,0,1,1,0|0,0,0,0,0,0,0,0,0,0,0,0|0,0,0,1,0,0,0,1,0,1,1,0|0,0,0,1,0,0,0,1,0,1,1,0|0,0,0,1,0,0,0,1,0,1,1,0|0,0,0,0,0,0,0,0,0,0,0,0|0,0,0,1,0,0,0,1,0,1,1,0|0,0,0,1,0,0,0,1,0,1,1,0|0,0,0,1,0,0,0,1,0,1,1,0|0,0,0,1,0,0,0,1,0,1,1,0|0,0,0,0,0,0,0,0,1,0,0,0|0,0,0,0,0,0,0,0,1,0,0,0|0,0,0,0,0,0,0,0,0,1,0,1|0,0,0,0,0,0,0,0,1,0,0,0|0,0,0,0,0,0,0,0,1,0,0,0|0,0,0,0,0,0,0,0,0,1,0,1|0,0,0,0,0,0,0,0,1,0,0,0|0,0,0,0,0,0,0,0,0,1,0,1|0,0,0,0,0,0,0,1,1,0,0,0|0,0,0,0,0,0,0,0,1,0,0,0|0,0,0,0,0,0,0,0,0,1,0,1|0,0,0,0,0,0,0,0,1,0,0,0|0,0,0,0,0,0,0,0,1,0,0,0|0,0,0,0,0,0,0,0,0,1,0,1|0,0,0,1,0,0,0,1,0,1,1,0|0,0,0,0,0,0,0,0,1,0,0,0|0,0,0,0,0,0,0,0,1,0,0,0|0,0,0,0,0,0,0,0,1,0,0,0|0,0,0,0,0,0,0,0,1,0,0,0|0,0,0,0,0,0,0,0,1,0,0,0|0,0,0,0,0,0,0,0,1,0,0,0|0,0,0,0,0,0,0,0,1,0,0,0|0,0,0,0,0,0,0,0,1,0,0,0|0,0,0,0,0,0,0,0,1,0,0,0|0,0,0,0,0,0,0,0,1,0,0,0|0,0,0,0,0,0,0,0,1,0,0,0|0,0,0,0,0,0,0,0,1,0,0,0|0,0,0,0,0,0,0,0,1,0,0,0|0,0,0,0,0,0,0,0,1,0,0,0|0,0,0,0,0,0,0,0,1,0,0,0|0,0,0,1,0,0,0,1,0,1,1,0|0,0,0,0,0,0,0,0,0,0,0,0|0,0,0,0,0,0,0,0,1,0,0,0|0,0,0,0,0,0,0,0,0,1,0,1|0,0,0,0,0,0,0,0,0,0,0,0|0,0,0,1,0,0,0,0,0,1,0,1|0,0,0,0,0,0,0,1,1,0,0,0|0,0,0,0,0,0,0,0,1,0,0,0|0,0,0,0,0,0,0,0,0,1,0,1|0,0,0,0,0,0,0,0,1,0,0,0|0,0,0,0,0,0,0,0,1,0,0,0|0,0,0,0,0,0,0,0,0,1,0,1|0,0,0,0,0,0,0,0,1,0,0,0|0,0,0,0,0,0,0,1,1,0,0,0|0,0,0,0,0,0,0,0,0,1,0,1|0,0,0,0,0,0,0,0,1,0,0,0|0,0,0,0,0,0,0,0,0,0,0,0|0,0,0,0,0,0,0,0,1,0,0,0|0,0,0,0,0,0,0,0,0,1,0,1|0,0,0,0,0,0,0,0,1,0,0,0|0,0,0,0,0,0,0,0,1,0,0,0|0,0,0,0,0,0,0,0,1,0,0,0|0,0,0,0,0,0,0,0,0,0,0,0|0,0,0,0,0,0,0,0,0,1,0,1|0,0,0,0,0,0,0,1,1,0,0,0|0,0,0,0,0,0,0,0,1,0,0,0|0,0,0,0,0,0,0,0,0,0,0,0|0,0,0,0,0,0,0,0,1,0,0,0|0,0,0,0,0,0,0,0,1,0,0,0|0,0,0,0,0,0,0,0,0,0,0,0|0,0,0,1,0,0,0,1,0,1,1,0|0,0,0,0,0,0,0,0,1,0,0,0|0,0,0,0,0,0,0,0,0,1,0,1|0,0,0,0,0,0,0,0,1,0,0,0|0,0,0,0,0,0,0,0,1,0,0,0|0,0,0,0,0,0,0,1,0,1,0,1|0,0,0,0,0,0,0,0,1,0,0,0|0,0,0,0,0,0,0,0,1,0,0,0|0,0,0,0,0,0,0,0,0,1,0,1|0,0,0,0,0,0,0,0,1,0,0,0|0,0,0,0,0,0,0,0,1,0,0,0|0,0,0,1,0,0,0,1,0,1,1,0|0,0,0,0,0,0,0,0,1,0,0,0|0,0,0,0,0,0,0,0,1,0,0,0|0,0,0,0,0,0,0,0,0,1,0,1|0,0,0,0,0,0,0,0,1,0,0,0|0,0,0,0,0,0,0,0,1,0,0,0|0,0,0,0,0,0,0,0,1,0,0,0|0,0,0,0,0,0,0,1,1,0,0,0|0,0,0,0,0,0,0,0,1,0,0,0|0,0,0,0,0,0,0,0,1,0,0,0|0,0,0,0,0,0,0,0,1,0,0,0|0,0,0,0,0,0,0,0,1,0,0,0|0,0,0,0,0,0,0,0,1,0,0,0|0,0,0,0,0,0,0,0,1,0,0,0|0,0,0,0,0,0,0,0,1,0,0,0|0,0,0,0,0,0,0,0,1,0,0,0|0,0,0,0,0,0,0,0,1,0,0,0|0,0,0,0,0,0,0,0,1,0,0,0|0,0,0,0,0,0,0,0,1,0,0,0|0,0,0,1,0,0,0,1,0,1,1,0|0,0,0,0,0,0,0,0,1,0,0,0|0,0,0,0,0,0,0,0,1,0,0,0|0,0,0,0,0,0,0,0,0,1,0,1|0,0,0,0,0,0,0,0,1,0,0,0|0,0,0,0,0,0,0,1,1,0,0,0|0,0,0,0,0,0,0,0,1,0,0,0|0,0,0,0,0,0,0,0,0,1,0,1|0,0,0,0,0,0,0,0,1,0,0,0|0,0,0,0,0,0,0,0,0,0,0,0|0,0,0,1,0,0,0,1,0,1,1,0|0,0,0,0,0,0,0,0,1,0,0,0|0,0,0,0,0,0,0,0,0,1,0,0|0,0,0,0,0,0,0,0,1,0,0,0|0,0,0,0,0,0,0,0,0,1,0,1|0,0,0,0,0,0,0,0,1,0,0,0|0,0,0,0,0,0,0,0,1,0,0,0|0,0,0,1,0,0,0,1,0,1,1,0|0,0,0,0,0,0,0,0,1,0,0,0|0,0,0,0,0,0,0,0,0,1,0,1|0,0,0,0,0,0,0,0,1,0,0,0|0,0,0,0,0,0,0,0,1,0,0,0|0,0,0,0,0,0,0,0,0,1,0,0|0,0,0,0,0,0,0,0,0,0,0,0|0,0,0,0,0,0,0,0,1,0,0,0|0,0,0,1,0,0,0,1,0,1,1,0|0,0,0,0,0,0,0,0,0,0,0,0|0,0,0,0,0,0,0,0,1,0,0,0|0,0,0,0,0,0,0,0,1,0,0,0|0,0,0,0,0,0,0,0,0,1,0,0|0,0,0,0,0,0,0,0,1,0,0,0|0,0,0,0,0,0,0,1,1,0,0,0|0,0,0,0,0,0,0,0,0,1,0,1|0,0,0,0,0,0,0,0,1,0,0,0|0,0,0,0,0,0,0,0,1,0,0,0|0,0,0,1,0,0,0,1,0,1,1,0|0,0,0,0,0,0,0,0,1,0,0,0|0,0,0,0,0,0,0,0,1,0,0,0|0,0,0,0,0,0,0,0,0,1,0,0|0,0,0,0,0,0,0,0,1,0,0,0|0,0,0,0,0,0,0,0,1,0,0,0|0,0,0,1,0,0,0,1,0,1,1,0|0,0,0,0,0,0,0,0,1,0,0,0|0,0,0,0,0,0,0,0,0,1,0,1|0,0,0,0,0,0,0,0,1,0,0,0|0,0,0,0,0,0,0,0,1,0,0,0|0,0,0,0,0,0,0,1,0,1,0,1|0,0,0,0,0,0,0,0,1,0,0,0|0,0,0,0,0,0,0,0,1,0,0,0|0,0,0,0,0,0,0,0,1,0,0,0|0,0,0,0,0,0,0,0,1,0,0,0|0,0,0,0,0,0,0,0,0,0,0,0|0,0,0,0,0,0,0,1,1,0,0,0|0,0,0,0,0,0,0,0,1,0,0,0|0,0,0,0,0,0,0,0,1,0,0,0|0,0,0,0,0,0,0,0,1,0,0,0|0,0,0,0,0,0,0,0,0,0,0,0|0,0,0,0,0,0,0,0,1,0,0,0|0,0,0,0,0,0,0,0,1,0,0,0|0,0,0,0,0,0,0,0,1,0,0,0|0,0,0,1,0,0,0,1,0,1,1,0|0,0,0,0,0,0,0,0,1,0,0,0|0,0,0,0,0,0,0,0,0,1,0,1|0,0,0,0,0,0,0,0,1,0,0,0|0,0,0,0,0,0,0,0,1,0,0,0|0,0,0,0,0,0,0,0,0,1,0,1|0,0,0,0,0,0,0,0,1,0,0,0|0,0,0,0,0,0,0,0,1,0,0,0|0,0,0,0,0,0,0,0,1,0,0,0|0,0,0,1,0,0,0,1,0,1,1,0|0,0,0,0,0,0,0,0,1,0,0,0|0,0,0,0,0,0,0,0,1,0,0,0|0,0,0,0,0,0,0,0,0,1,0,1|0,0,0,0,0,0,0,0,1,0,0,0|0,0,0,0,0,0,0,0,0,1,0,0|0,0,0,0,0,0,0,1,1,0,0,0|0,0,0,0,0,0,0,0,1,0,0,0|0,0,0,0,0,0,0,0,1,0,0,0|0,0,0,0,0,0,0,0,1,0,0,0|0,0,0,0,0,0,0,0,0,0,0,0|0,0,0,0,0,0,0,0,1,0,0,0|0,0,0,0,0,0,0,0,1,0,0,0|0,0,0,0,0,0,0,0,1,0,0,0|0,0,0,0,0,0,0,0,1,0,0,0|0,0,0,0,0,0,0,1,0,1,0,1|0,0,0,0,0,0,0,0,1,0,0,0|0,0,0,0,0,0,0,0,1,0,0,0|0,0,0,0,0,0,0,0,1,0,0,0|0,0,0,0,0,0,0,0,1,0,0,0|0,0,0,0,0,0,0,0,0,0,0,0|0,0,0,1,0,0,0,1,0,1,1,0|0,0,0,0,0,0,0,0,1,0,0,0|0,0,0,0,0,0,0,0,1,0,0,0|0,0,0,0,0,0,0,0,0,1,0,1|0,0,0,0,0,0,0,0,1,0,0,0|0,0,0,0,0,0,0,0,1,0,0,0|0,0,0,0,0,0,0,0,1,0,0,0|0,0,0,1,0,0,0,1,0,1,1,0|0,0,0,0,0,0,0,0,0,0,0,0|0,0,0,0,0,0,0,0,1,0,0,0|0,0,0,0,0,0,0,0,0,1,0,1|0,0,0,0,0,0,0,0,1,0,0,0|0,0,0,0,0,0,0,0,1,0,0,0|0,0,0,0,0,0,0,0,1,0,0,0|0,0,0,1,0,0,0,1,0,1,1,0|0,0,0,0,0,0,0,0,1,0,0,0|0,0,0,0,0,0,0,0,1,0,0,0|0,0,0,0,0,0,0,0,1,0,0,0|0,0,0,0,0,0,0,0,1,0,0,0|0,0,0,0,0,0,0,0,1,0,0,0|0,0,0,0,0,0,0,0,1,0,0,0|0,0,0,0,0,0,0,0,1,0,0,0|0,0,0,0,0,0,0,0,1,0,0,0|0,0,0,0,0,0,0,0,1,0,0,0|0,0,0,0,0,0,0,0,1,0,0,0|0,0,0,0,0,0,0,0,1,0,0,0|0,0,0,0,0,0,0,0,1,0,0,0|0,0,0,0,0,0,0,0,1,0,0,0|0,0,0,0,0,0,0,0,1,0,0,0|0,0,0,0,0,0,0,0,1,0,0,0|0,0,0,1,0,0,0,1,0,1,1,0|0,0,0,0,0,0,0,0,1,0,0,0|0,0,0,0,0,0,0,0,1,0,0,0|0,0,0,0,0,0,0,0,0,1,0,1|0,0,0,0,0,0,0,0,1,0,0,0|0,0,0,0,0,0,0,0,1,0,0,0|0,0,0,0,0,0,0,0,0,1,0,1|0,0,0,0,0,0,0,0,1,0,0,0|0,0,0,1,0,0,0,1,0,1,1,0|0,0,0,0,0,0,0,0,0,1,0,1|0,0,0,0,0,0,0,0,1,0,0,0|0,0,0,1,0,0,0,0,0,0,0,0|0,0,0,0,0,0,0,0,0,1,0,0|0,0,0,0,0,0,0,0,1,0,0,0|0,0,0,0,0,0,0,0,1,0,0,0|0,0,0,1,0,0,0,1,0,1,1,0|0,0,0,1,0,0,0,1,0,1,1,0|0,0,0,1,0,0,0,1,0,1,1,0|0,0,0,1,0,0,0,1,0,1,1,0|0,0,0,1,0,0,0,0,0,0,0,0|0,0,0,1,0,0,0,1,0,1,1,0|0,0,0,0,0,0,0,0,0,1,0,0|0,0,0,1,0,0,0,1,0,1,1,0|0,0,0,1,0,0,0,1,0,1,1,0|0,0,0,1,0,0,0,1,0,1,1,0|0,0,0,1,0,0,0,0,0,0,1,0|0,0,0,1,0,0,0,1,0,1,1,0|0,0,0,0,0,0,0,0,0,1,0,0|0,0,0,1,0,0,0,1,0,1,1,0|0,0,0,1,0,0,0,1,0,1,1,0|0,0,0,0,0,0,0,0,0,0,0,0|0,0,0,0,0,0,0,0,1,0,0,0|0,0,0,0,0,0,0,0,0,1,0,1|0,0,0,0,0,0,0,0,1,0,0,0|0,0,0,0,0,0,0,0,1,0,0,0|0,0,0,0,0,0,0,0,1,0,0,0|0,0,0,1,0,0,0,1,0,1,1,0|0,0,0,0,0,0,0,0,0,0,0,0|0,0,0,0,0,0,0,0,1,0,0,0|0,0,0,0,0,0,0,0,0,1,0,0|0,0,0,0,0,0,0,0,1,0,0,0|0,0,0,0,0,0,0,0,1,0,0,0|0,0,0,0,0,0,0,0,0,1,0,1|0,0,0,0,0,0,0,0,1,0,0,0|0,0,0,1,0,0,0,1,0,1,1,0|0,0,0,0,0,0,0,0,1,0,0,0|0,0,0,0,0,0,0,0,1,0,0,0|0,0,0,0,0,0,0,0,1,0,0,0|0,0,0,0,0,0,0,0,1,0,0,0|0,0,0,0,0,0,0,0,1,0,0,0|0,0,0,0,0,0,0,0,1,0,0,0|0,0,0,0,0,0,0,0,1,0,0,0|0,0,0,0,0,0,0,0,1,0,0,0|0,0,0,0,0,0,0,0,1,0,0,0|0,0,0,0,0,0,0,0,1,0,0,0|0,0,0,0,0,0,0,0,1,0,0,0|0,0,0,0,0,0,0,0,1,0,0,0|0,0,0,0,0,0,0,0,1,0,0,0|0,0,0,0,0,0,0,0,1,0,0,0|0,0,0,0,0,0,0,0,1,0,0,0|0,0,0,1,0,0,0,1,0,1,1,0|0,0,0,0,0,0,0,0,1,0,0,0|0,0,0,0,0,0,0,0,1,0,0,0|0,0,0,0,0,0,0,0,0,1,0,1|0,0,0,0,0,0,0,0,1,0,0,0|0,0,0,0,0,0,0,1,0,0,0,0|0,0,0,0,0,0,0,0,0,1,0,0|0,0,0,0,0,0,0,0,1,0,0,0|0,0,0,0,0,0,0,0,1,0,0,0|0,0,0,0,0,0,0,0,0,1,0,1|0,0,0,0,0,0,0,0,1,0,0,0|0,0,0,0,0,0,0,0,1,0,0,0|0,0,0,1,0,0,0,1,0,1,1,0|0,0,0,0,0,0,0,0,1,0,0,0|0,0,0,0,0,0,0,0,0,1,0,1|0,0,0,0,0,0,0,0,0,0,0,0|0,0,0,0,0,0,0,0,1,0,0,0|0,0,0,0,0,0,0,0,1,0,0,0|0,0,0,0,0,0,0,0,1,1,0,0|0,0,0,0,0,0,0,1,1,0,0,0|0,0,0,0,0,0,0,0,0,0,0,0|0,0,0,0,0,0,0,0,1,0,0,0|0,0,0,0,0,0,0,0,1,0,0,0|0,0,0,0,0,0,0,0,1,0,0,0|0,0,0,0,0,0,0,0,1,0,0,0|0,0,0,0,0,0,0,1,0,0,0,0|0,0,0,0,0,0,0,0,1,0,0,0|0,0,0,0,0,1,0,0,1,0,0,0|0,0,0,0,0,0,0,0,1,0,0,0|0,0,0,0,0,0,0,0,1,0,0,0|0,0,0,0,0,0,0,0,0,1,0,1|0,0,0,0,0,0,0,0,1,0,0,0|0,0,0,0,0,0,0,0,1,0,0,0|0,0,0,1,0,0,0,1,0,1,1,0|0,0,0,0,0,0,0,0,1,0,0,0|0,0,0,0,0,0,0,0,1,0,0,0|0,0,0,0,0,0,0,0,0,1,0,1|0,0,0,0,0,0,0,0,1,0,0,0|0,0,0,0,0,0,0,0,1,0,0,0|0,0,0,0,0,0,0,1,0,1,0,1|0,0,0,0,0,0,0,0,1,0,0,0|0,0,0,0,0,0,0,0,1,0,0,0|0,0,0,0,0,0,0,0,0,1,0,1|0,0,0,0,0,0,0,0,1,0,0,0|0,0,0,0,0,0,0,0,1,0,0,0|0,0,0,1,0,0,0,1,0,1,1,0|0,0,0,0,0,0,0,0,1,0,0,0|0,0,0,0,0,0,0,0,1,0,0,0|0,0,0,0,0,0,0,0,0,0,0,0|0,0,0,0,0,0,0,0,0,1,0,0|0,0,0,0,0,0,0,0,1,0,0,0|0,0,0,0,0,0,0,0,1,0,0,0|0,0,0,1,0,0,0,1,0,1,1,0|0,0,0,0,0,0,0,0,1,0,0,0|0,0,0,0,0,0,0,0,1,0,0,0|0,0,0,0,0,0,0,0,0,1,0,0|0,0,0,0,0,0,0,0,1,0,0,0|0,0,0,0,0,0,0,0,1,0,0,0|0,0,0,1,0,0,0,1,0,1,1,0|0,0,0,0,0,0,0,0,1,0,0,0|0,0,0,0,0,0,0,0,0,1,0,1|0,0,0,0,0,0,0,0,1,0,0,0|0,0,0,0,0,0,0,0,1,0,0,0|0,0,0,0,0,0,0,0,0,1,0,1|0,0,0,0,0,0,0,0,1,0,0,0|0,0,0,1,0,0,0,1,0,1,1,0|0,0,0,0,0,0,0,0,1,0,0,0|0,0,0,0,0,0,0,0,0,1,0,1|0,0,0,0,0,0,0,0,1,0,0,0|0,0,0,0,0,0,0,0,1,0,0,0|0,0,0,0,0,0,0,0,0,1,0,1|0,0,0,0,0,0,0,0,1,0,0,0|0,0,0,0,0,0,0,0,1,0,0,0|0,0,0,1,0,0,0,1,0,1,1,0|0,0,0,0,0,0,0,0,0,1,0,1|0,0,0,0,0,0,0,0,1,0,0,0|0,0,0,0,0,0,0,0,1,0,0,0|0,0,0,0,0,0,0,0,1,0,0,0|0,0,0,0,0,0,0,0,0,0,0,0|0,0,0,0,0,0,0,0,1,0,0,0|0,0,0,0,0,0,0,0,1,0,0,0|0,0,0,0,0,0,0,0,1,0,0,0|0,0,0,0,0,0,0,0,1,0,0,0|0,0,0,0,0,0,0,0,0,0,1,0|0,0,0,0,0,0,0,0,1,0,0,0|0,0,0,0,0,0,0,0,1,0,0,0|0,0,0,0,0,0,0,0,1,0,0,0|0,0,0,0,0,0,0,0,1,0,0,0|0,0,0,0,0,0,0,0,1,0,0,0|0,0,0,0,0,0,0,0,1,0,0,0|0,0,0,1,0,0,0,1,0,1,1,0|0,0,0,0,0,0,0,0,1,0,0,0|0,0,0,0,0,0,0,0,1,0,0,0|0,0,0,0,0,0,0,0,0,1,0,1|0,0,0,0,0,0,0,0,1,0,0,0|0,0,0,0,0,0,0,0,1,0,0,0|0,0,0,0,0,0,0,0,0,1,0,1|0,0,0,0,0,0,0,0,1,0,0,0|0,0,0,0,0,0,0,0,1,0,0,0|0,0,0,0,0,0,0,1,1,1,0,0|0,0,0,0,0,0,0,0,1,0,0,0|0,0,0,0,0,0,0,0,0,1,0,1|0,0,0,0,0,0,0,0,1,0,0,0|0,0,0,0,0,0,0,0,1,0,0,0|0,0,0,1,0,0,0,1,0,1,1,0|0,0,0,0,0,0,0,0,1,0,0,0|0,0,0,0,0,0,0,0,1,0,0,0|0,0,0,0,0,0,0,0,1,0,0,0|0,0,0,0,0,0,0,0,1,0,0,0|0,0,0,0,0,0,0,0,1,0,0,0|0,0,0,0,0,0,0,0,1,1,0,0|0,0,0,0,0,0,0,1,1,0,0,0|0,0,0,0,0,0,0,0,1,0,0,0|0,0,0,0,0,0,0,0,1,0,0,0|0,0,0,0,0,0,0,0,1,0,0,0|0,0,0,0,0,0,0,0,1,0,0,0|0,0,0,0,0,0,0,0,1,0,0,0|0,0,0,0,0,0,0,0,1,0,0,0|0,0,0,0,0,0,0,0,1,0,0,0|0,0,0,0,0,0,0,0,1,0,0,0|0,0,0,1,0,0,0,1,0,1,1,0|0,0,0,0,0,0,0,0,0,0,0,0|0,0,0,0,0,0,0,0,0,0,0,0|0,0,0,0,0,0,0,0,0,1,0,1|0,0,0,0,0,0,0,0,1,0,0,0|0,0,0,0,0,0,0,0,1,0,0,0|0,0,0,0,0,0,0,0,0,1,0,1|0,0,0,0,0,0,0,0,1,0,0,0|0,0,0,1,0,0,0,1,0,1,1,0|0,0,0,0,0,0,0,0,0,0,0,0|0,0,0,0,0,0,0,0,0,0,0,0|0,0,0,0,0,0,0,0,0,1,0,0|0,0,0,0,0,0,0,0,1,0,0,0|0,0,0,0,0,0,0,0,1,0,0,0|0,0,0,0,0,0,0,0,1,0,0,0|0,0,0,1,0,0,0,1,0,1,1,0|0,0,0,1,0,0,0,1,0,1,1,0|0,0,0,1,0,0,0,1,0,1,1,0|0,0,0,0,0,0,0,0,0,0,0,0|0,0,0,1,0,0,0,1,0,1,1,0|0,0,0,1,0,0,0,1,0,1,1,0|0,0,0,1,0,0,0,1,0,1,1,0|0,0,0,0,0,0,0,0,0,0,0,0|0,0,0,1,0,0,0,1,0,1,1,0|0,0,0,0,0,0,0,0,0,1,0,0|0,0,0,1,0,0,0,1,0,1,1,0|0,0,0,0,0,0,0,1,0,1,0,1|0,0,0,1,0,0,0,1,0,1,1,0|0,0,0,0,0,0,0,0,0,0,1,0|0,0,0,1,0,0,0,1,0,1,1,0|0,0,0,0,0,0,0,0,1,0,0,0|0,0,0,0,0,0,0,0,0,1,0,1|0,0,0,0,0,0,0,0,1,0,0,0|0,0,0,0,0,0,0,0,1,0,0,0|0,0,0,0,0,0,0,0,0,1,0,1|0,0,0,0,0,0,0,0,1,0,0,0|0,0,0,1,0,0,0,1,0,1,1,0|0,0,0,0,0,0,0,0,1,0,0,0|0,0,0,0,0,0,0,0,1,0,0,0|0,0,0,0,0,0,0,0,0,1,0,1|0,0,0,0,0,0,0,0,1,0,0,0|0,0,0,0,0,0,0,0,1,0,0,0|0,0,0,0,0,0,0,0,0,1,0,1|0,0,0,0,0,0,0,0,1,0,0,0|0,0,0,1,0,0,0,1,0,1,1,0|0,0,0,0,0,0,0,0,1,0,0,0|0,0,0,0,0,0,0,0,1,0,0,0|0,0,0,0,0,0,0,0,1,0,0,0|0,0,0,0,0,0,0,0,0,0,0,0|0,0,0,0,0,1,0,1,1,1,0,0|0,0,0,0,0,0,0,0,1,0,0,0|0,0,0,0,0,0,0,0,1,0,0,0|0,0,0,0,0,0,0,0,1,0,0,0|0,0,0,0,0,0,0,0,0,1,0,0|0,0,0,0,0,0,0,0,1,0,0,0|0,0,0,0,0,0,0,0,1,0,0,0|0,0,0,0,0,0,0,1,0,1,0,1|0,0,0,0,0,0,0,0,1,0,0,0|0,0,0,0,0,1,0,0,1,0,0,0|0,0,0,0,0,0,0,0,1,0,0,0|0,0,0,0,0,0,0,0,0,1,0,1|0,0,0,0,0,0,0,0,1,0,0,0|0,0,0,0,0,0,0,1,0,0,0,0|0,0,0,0,0,0,0,0,1,0,0,0|0,0,0,0,0,0,0,0,0,1,0,1|0,0,0,0,0,0,0,0,1,0,0,0|0,0,0,0,0,0,0,0,1,0,0,0|0,0,0,1,0,0,0,1,0,1,1,0|0,0,0,0,0,0,0,0,1,0,0,0|0,0,0,0,0,0,0,0,0,1,0,1|0,0,0,0,0,0,0,0,0,0,0,0|0,0,0,0,0,0,0,0,0,1,0,1|0,0,0,0,0,0,0,0,1,0,0,0|0,0,0,0,0,0,0,0,1,0,0,0|0,0,0,1,0,0,0,1,0,1,1,0|0,0,0,0,0,0,0,0,1,0,0,0|0,0,0,0,0,0,0,0,1,0,0,0|0,0,0,0,0,0,0,0,1,0,0,0|0,0,0,0,0,0,0,0,1,0,0,0|0,0,0,0,0,0,0,0,1,0,0,0|0,0,0,0,0,0,0,0,1,0,0,0|0,0,0,0,0,0,0,0,1,0,0,0|0,0,0,0,0,0,0,0,1,0,0,0|0,0,0,0,0,0,0,0,1,0,0,0|0,0,0,0,0,0,0,0,1,0,0,0|0,0,0,0,0,0,0,0,1,0,0,0|0,0,0,0,0,0,0,0,1,0,0,0|0,0,0,0,0,0,0,0,1,0,0,0|0,0,0,0,0,0,0,0,1,0,0,0|0,0,0,0,0,0,0,0,1,0,0,0|0,0,0,0,0,0,0,1,0,1,0,1|0,0,0,0,0,0,0,0,1,0,0,0|0,0,0,0,0,0,0,0,1,0,0,0|0,0,0,0,0,0,0,0,0,1,0,0|0,0,0,0,0,0,0,0,1,0,0,0|0,0,0,0,0,0,0,0,1,0,0,0|0,0,0,1,0,0,0,1,0,1,1,0|0,0,0,0,0,0,0,0,1,0,0,0|0,0,0,0,0,0,0,0,1,0,0,0|0,0,0,0,0,0,0,0,0,1,0,1|0,0,0,0,0,0,0,0,0,0,0,0|0,0,0,0,0,0,0,0,0,1,0,1|0,0,0,0,0,0,0,0,1,0,0,0|0,0,0,0,0,0,0,0,1,0,0,0|0,0,0,1,0,0,0,1,0,1,1,0|0,0,0,0,0,0,0,0,1,0,0,0|0,0,0,0,0,0,0,0,1,0,0,0|0,0,0,0,0,0,0,0,1,0,0,0|0,0,0,0,0,0,0,0,1,0,0,0|0,0,0,0,0,0,0,0,1,0,0,0|0,0,0,0,0,0,0,0,1,0,0,0|0,0,0,0,0,0,0,0,1,0,0,0|0,0,0,0,0,0,0,0,1,0,0,0|0,0,0,0,0,0,0,0,1,0,0,0|0,0,0,0,0,0,0,0,1,0,0,0|0,0,0,0,0,0,0,0,1,0,0,0|0,0,0,0,0,0,0,0,1,0,0,0|0,0,0,0,0,0,0,0,1,0,0,0|0,0,0,0,0,0,0,0,1,0,0,0|0,0,0,0,0,0,0,0,1,0,0,0|0,0,0,1,0,0,0,1,0,1,1,0|0,0,0,0,0,0,0,0,1,0,0,0|0,0,0,0,0,0,0,0,1,0,0,0|0,0,0,0,0,0,0,0,1,0,0,0|0,0,0,0,0,0,0,0,0,1,0,1|0,0,0,0,0,0,0,0,1,0,0,0|0,0,0,0,0,0,0,0,1,0,0,0|0,0,0,1,0,0,0,1,0,1,1,0|0,0,0,0,0,0,0,0,1,0,0,0|0,0,0,0,0,0,0,0,1,0,0,0|0,0,0,0,0,0,0,0,1,0,0,0|0,0,0,0,0,0,0,0,0,1,0,1|0,0,0,0,0,0,0,0,1,0,0,0|0,0,0,0,0,0,0,0,1,0,0,0|0,0,0,1,0,0,0,1,0,1,1,0|0,0,0,0,0,0,0,0,1,0,0,0|0,0,0,0,0,0,0,0,1,0,0,0|0,0,0,0,0,0,0,0,1,0,0,0|0,0,0,0,0,0,0,0,1,0,0,0|0,0,0,0,0,0,0,0,1,0,0,0|0,0,0,0,0,0,0,0,1,0,0,0|0,0,0,0,0,0,0,0,1,0,0,0|0,0,0,0,0,0,0,0,1,0,0,0|0,0,0,0,0,0,0,0,1,0,0,0|0,0,0,0,0,0,0,0,1,0,0,0|0,0,0,0,0,0,0,0,1,0,0,0|0,0,0,0,0,0,0,0,1,0,0,0|0,0,0,0,0,0,0,0,1,0,0,0|0,0,0,0,0,0,0,0,1,0,0,0|0,0,0,0,0,0,0,0,1,0,0,0|0,0,0,0,0,0,0,0,0,1,0,1|0,0,0,0,0,0,0,0,0,0,1,0|0,0,0,0,0,0,0,1,1,0,0,0|0,0,0,0,0,0,0,0,0,1,0,0|0,0,0,0,0,0,0,0,1,0,0,0|0,0,0,0,0,0,0,0,0,1,0,1|0,0,0,0,0,0,0,0,1,0,0,0|0,0,0,0,0,0,0,0,1,0,0,0|0,0,0,1,0,0,0,1,0,1,1,0|0,0,0,0,0,0,0,0,1,0,0,0|0,0,0,0,0,0,0,0,1,0,0,0|0,0,0,0,0,0,0,0,0,1,0,0|0,0,0,0,0,0,0,0,1,0,0,0|0,0,0,0,0,0,0,0,1,0,0,0|0,0,0,1,0,0,0,1,0,1,1,0|0,0,0,0,0,0,0,0,1,0,0,0|0,0,0,0,0,0,0,0,1,0,0,0|0,0,0,0,0,0,0,0,0,1,0,0|0,0,0,0,0,0,0,0,1,0,0,0|0,0,0,0,0,0,0,0,0,0,0,0|0,0,0,1,0,0,0,1,0,1,1,0|0,0,0,0,0,0,0,0,1,0,0,0|0,0,0,0,0,0,0,0,1,0,0,0|0,0,0,0,0,0,0,0,1,0,0,0|0,0,0,0,0,0,0,0,0,1,0,1|0,0,0,0,0,0,0,0,0,0,0,0|0,0,0,0,0,0,0,0,1,0,0,0|0,0,0,1,0,0,0,1,0,1,1,0|0,0,0,0,0,0,0,0,1,0,0,0|0,0,0,0,0,0,0,0,1,0,0,0|0,0,0,0,0,0,0,0,0,1,0,1|0,0,0,0,0,0,0,0,1,0,0,0|0,0,0,0,0,0,0,0,1,0,0,0|0,0,0,0,0,0,0,1,0,1,0,1|0,0,0,0,0,0,0,0,1,0,0,0|0,0,0,0,0,0,0,0,1,0,0,0|0,0,0,0,0,0,0,0,0,1,0,1|0,0,0,0,0,0,0,0,1,0,0,0|0,0,0,0,0,0,0,0,0,1,0,0|0,0,0,0,0,0,0,0,1,0,0,0|0,0,0,0,0,0,0,0,1,0,0,0|0,0,0,1,0,0,0,1,0,1,1,0|0,0,0,0,0,0,0,0,1,0,0,0|0,0,0,0,0,0,0,0,1,0,0,0|0,0,0,0,0,0,0,0,0,1,0,0|0,0,0,0,0,0,0,0,1,0,0,0|0,0,0,0,0,0,0,0,1,0,0,0|0,0,0,0,0,0,0,1,1,0,0,0|0,0,0,0,0,0,0,0,1,0,0,0|0,0,0,0,0,0,0,0,0,0,0,0|0,0,0,0,0,0,0,0,1,0,0,0|0,0,0,0,0,0,0,0,1,0,0,0|0,0,0,0,0,0,0,0,1,0,0,0|0,0,0,0,0,0,0,0,1,0,0,0|0,0,0,0,0,0,0,1,0,1,0,1|0,0,0,0,0,0,0,0,1,0,0,0|0,0,0,0,0,0,0,0,1,0,0,0|0,0,0,0,0,0,0,0,1,0,0,0|0,0,0,0,0,0,0,0,1,0,0,0|0,0,0,0,0,0,0,0,1,0,0,0|0,0,0,1,0,0,0,1,0,1,1,0|0,0,0,0,0,0,0,0,1,0,0,0|0,0,0,0,0,0,0,0,0,1,0,0|0,0,0,0,0,0,0,0,1,0,0,0|0,0,0,0,0,0,0,0,1,0,0,0|0,0,0,0,0,0,0,0,0,1,0,1|0,0,0,0,0,0,0,1,1,0,0,0|0,0,0,0,0,0,0,0,1,0,0,0|0,0,0,0,0,0,0,0,0,1,0,1|0,0,0,0,0,0,0,0,1,0,0,0|0,0,0,0,0,0,0,0,1,0,0,0|0,0,0,0,0,0,0,0,0,1,0,1|0,0,0,0,0,0,0,0,1,0,0,0|0,0,0,0,0,0,0,0,1,0,0,0|0,0,0,1,0,0,0,1,0,1,1,0|0,0,0,0,0,0,0,0,1,0,0,0|0,0,0,0,0,0,0,0,1,0,0,0|0,0,0,0,0,0,0,0,0,0,0,0|0,0,0,0,0,0,0,0,0,0,0,0|0,0,0,0,0,0,0,0,0,0,0,0|0,0,0,0,0,0,0,0,1,0,0,0|0,0,0,0,0,0,0,0,0,0,0,0|0,0,0,0,0,0,0,0,1,0,0,0|0,0,0,0,0,0,0,0,1,0,0,0|0,0,0,0,0,0,0,0,1,0,0,0|0,0,0,0,0,0,0,1,0,0,0,0|0,0,0,0,0,0,0,0,1,0,0,0|0,0,0,0,0,0,0,0,0,0,0,0|0,0,0,0,0,0,0,0,1,0,0,0|0,0,0,0,0,0,0,0,1,0,0,0|0,0,0,0,0,0,0,0,0,1,0,1|0,0,0,0,0,0,0,1,0,0,0,0|0,0,0,0,0,0,0,0,1,0,0,0|0,0,0,0,0,0,0,0,0,1,0,1|0,0,0,0,0,0,0,0,1,0,0,0|0,0,0,0,0,0,0,0,1,0,0,0|0,0,0,0,0,0,0,0,1,0,0,0|0,0,0,1,0,0,0,1,0,1,1,0|0,0,0,0,0,0,0,0,1,0,0,0|0,0,0,0,0,0,0,0,1,0,0,0|0,0,0,0,0,0,0,0,0,1,0,1|0,0,0,0,0,0,0,0,0,0,0,0|0,0,0,0,0,0,0,0,1,0,0,0|0,0,0,0,0,0,0,0,1,0,0,0|0,0,0,1,0,0,0,1,0,1,1,0|0,0,0,0,0,0,0,0,1,0,0,0|0,0,0,0,0,0,0,0,1,0,0,0|0,0,0,0,0,0,0,0,1,0,0,0|0,0,0,0,0,0,0,0,1,0,0,0|0,0,0,0,0,0,0,0,1,0,0,0|0,0,0,0,0,0,0,0,1,0,0,0|0,0,0,0,0,0,0,0,1,0,0,0|0,0,0,0,0,0,0,0,1,0,0,0|0,0,0,0,0,0,0,0,1,0,0,0|0,0,0,0,0,0,0,0,1,0,0,0|0,0,0,0,0,0,0,0,1,0,0,0|0,0,0,0,0,0,0,0,1,0,0,0|0,0,0,0,0,0,0,0,1,0,0,0|0,0,0,0,0,0,0,0,1,0,0,0|0,0,0,0,0,0,0,0,1,0,0,0|0,0,0,0,0,0,0,0,1,0,0,0|0,0,0,0,0,0,0,0,1,0,0,0|0,0,0,0,0,0,0,0,1,0,0,0|0,0,0,0,0,0,0,0,1,0,0,0|0,0,0,0,0,0,0,1,1,0,0,0|0,0,0,0,0,0,0,0,1,0,0,0|0,0,0,0,0,0,0,0,1,0,0,0|0,0,0,0,0,0,0,0,1,0,0,0|0,0,0,0,0,0,0,0,1,0,0,0|0,0,0,0,0,0,0,0,1,0,0,0|0,0,0,0,0,0,0,0,1,0,0,0|0,0,0,0,0,1,0,0,1,0,0,0|0,0,0,0,0,0,0,0,1,0,0,0|0,0,0,0,0,0,0,0,1,0,0,0|0,0,0,0,0,0,0,0,1,0,0,0|0,0,0,1,0,0,0,1,0,1,1,0|0,0,0,0,0,0,0,0,1,0,0,0|0,0,0,0,0,0,0,0,1,0,0,0|0,0,0,0,0,0,0,0,0,1,0,1|0,0,0,0,0,0,0,0,1,0,0,0|0,0,0,0,0,0,0,0,1,0,0,0|0,0,0,0,0,0,0,0,1,0,0,0|0,0,0,1,0,0,0,1,0,1,1,0|0,0,0,0,0,0,0,0,1,0,0,0|0,0,0,0,0,0,0,0,0,1,0,1|0,0,0,0,0,0,0,0,1,0,0,0|0,0,0,0,0,0,0,0,1,0,0,0|0,0,0,0,0,0,0,0,0,1,0,0|0,0,0,0,0,0,0,0,0,0,0,0|0,0,0,0,0,0,0,0,1,0,0,0|0,0,0,1,0,0,0,1,0,1,1,0|0,0,0,1,0,0,0,1,0,1,1,0|0,0,0,0,0,0,0,0,0,1,0,0|0,0,0,1,0,0,0,1,0,1,1,0|0,0,0,1,0,0,0,1,0,1,1,0|0,0,0,0,0,0,0,0,0,1,0,0|0,0,0,1,0,0,0,1,0,1,1,0|0,0,0,1,0,0,0,1,0,1,1,0|0,0,0,0,0,0,0,0,0,0,0,0|0,0,0,1,0,0,0,1,0,1,1,0|0,0,0,1,0,0,0,1,0,1,1,0|0,0,0,0,0,0,0,0,0,1,0,0|0,0,0,1,0,0,0,1,0,1,1,0|0,0,0,0,0,0,0,0,0,1,0,0|0,0,0,1,0,0,0,1,0,1,1,0|0,0,0,0,0,0,0,0,1,0,0,0|0,0,0,0,0,0,0,0,1,0,0,0|0,0,0,0,0,0,0,0,0,1,0,1|0,0,0,0,0,0,0,0,0,0,0,0|0,0,0,0,0,0,0,0,0,1,0,0|0,0,0,0,0,0,0,1,1,0,0,0|0,0,0,0,0,0,0,0,1,0,0,0|0,0,0,0,0,0,0,0,0,1,0,1|0,0,0,0,0,0,0,0,1,0,0,0|0,0,0,0,0,0,0,0,1,0,0,0|0,0,0,0,0,0,0,0,0,1,0,1|0,0,0,0,0,0,0,0,1,0,0,0|0,0,0,1,0,0,0,1,0,1,1,0|0,0,0,0,0,0,0,0,1,0,0,0|0,0,0,0,0,0,0,0,1,0,0,0|0,0,0,0,0,0,0,0,1,0,0,0|0,0,0,0,0,0,0,0,0,1,0,0|0,0,0,0,0,0,0,0,0,0,0,0|0,0,0,0,0,0,0,1,0,0,0,0|0,0,0,0,0,0,0,0,0,1,0,0|0,0,0,0,0,0,0,0,1,0,0,0|0,0,0,0,0,0,0,0,1,0,0,0|0,0,0,0,0,0,0,0,1,0,0,0|0,0,0,1,0,0,0,1,0,1,1,0|0,0,0,0,0,0,0,0,1,0,0,0|0,0,0,0,0,0,0,0,1,0,0,0|0,0,0,0,0,0,0,0,0,1,0,0|0,0,0,0,0,0,0,0,1,0,0,0|0,0,0,0,0,0,0,1,1,0,0,0|0,0,0,0,0,0,0,0,0,0,0,0|0,0,0,1,0,0,0,0,0,1,0,0|0,0,0,0,0,0,0,0,1,0,0,0|0,0,0,0,0,0,0,0,1,0,0,0|0,0,0,0,0,0,0,0,1,0,0,0|0,0,0,1,0,0,0,1,0,1,1,0|0,0,0,0,0,0,0,0,1,0,0,0|0,0,0,0,0,0,0,0,1,0,0,0|0,0,0,0,0,0,0,0,0,1,0,1|0,0,0,0,0,0,0,0,1,0,0,0|0,0,0,0,0,0,0,1,1,0,0,0|0,0,0,0,0,0,0,0,0,1,0,1|0,0,0,0,0,0,0,0,1,0,0,0|0,0,0,0,0,0,0,0,1,0,0,0|0,0,0,0,0,0,0,0,1,0,0,0|0,0,0,1,0,0,0,1,0,1,1,0|0,0,0,0,0,0,0,0,1,0,0,0|0,0,0,0,0,0,0,0,1,0,0,0|0,0,0,0,0,0,0,0,1,0,0,0|0,0,0,0,0,0,0,0,1,0,0,0|0,0,0,0,0,0,0,0,1,0,0,0|0,0,0,0,0,0,0,0,1,0,0,0|0,0,0,0,0,0,0,0,1,0,0,0|0,0,0,0,0,0,0,0,1,0,0,0|0,0,0,0,0,0,0,0,1,0,0,0|0,0,0,0,0,0,0,0,1,0,0,0|0,0,0,0,0,0,0,0,1,0,0,0|0,0,0,0,0,0,0,0,1,0,0,0|0,0,0,0,0,0,0,0,1,0,0,0|0,0,0,0,0,0,0,0,1,0,0,0|0,0,0,0,0,0,0,0,1,0,0,0|0,0,0,1,0,0,0,1,0,1,1,0|0,0,0,0,0,0,0,0,1,0,0,0|0,0,0,0,0,0,0,0,1,0,0,0|0,0,0,0,0,0,0,0,0,1,0,1|0,0,0,0,0,0,0,0,1,0,0,0|0,0,0,0,0,0,0,0,1,0,0,0|0,0,0,0,0,0,0,0,1,0,0,0|0,0,0,0,0,0,0,0,0,0,0,0|0,0,0,0,0,0,0,1,1,0,0,0|0,0,0,0,0,0,0,0,1,0,0,0|0,0,0,0,0,0,0,0,1,0,0,0|0,0,0,0,0,0,0,0,1,0,0,0|0,0,0,0,0,0,0,0,0,1,0,0|0,0,0,0,0,0,0,0,1,0,0,0|0,0,0,0,0,0,0,1,1,0,0,0|0,0,0,0,0,0,0,0,1,0,0,0|0,0,0,0,0,0,0,0,1,0,0,0|0,0,0,0,0,0,0,0,0,0,0,0|0,0,0,0,0,0,0,0,1,0,0,0|0,0,0,0,0,0,0,0,1,0,0,0|0,0,0,0,0,0,0,0,1,0,0,0|0,0,0,0,0,0,0,0,1,0,0,0|0,0,0,0,0,0,0,0,1,0,0,0|0,0,0,0,0,0,0,0,1,0,0,0|0,0,0,0,0,0,0,0,1,0,0,0|0,0,0,0,0,0,0,0,1,0,0,0|0,0,0,0,0,0,0,0,1,0,0,0|0,0,0,0,0,0,0,0,1,0,0,0|0,0,0,0,0,0,0,0,1,0,0,0|0,0,0,0,0,0,0,0,1,0,0,0|0,0,0,0,0,1,0,0,1,0,0,0|0,0,0,0,0,0,0,0,1,0,0,0|0,0,0,0,0,0,0,0,1,0,0,0|0,0,0,0,0,0,0,0,1,0,0,0|0,0,0,0,0,0,0,0,0,0,0,0|0,0,0,0,0,0,0,0,0,0,0,0|0,0,0,0,0,0,0,0,0,0,0,0|0,0,0,0,0,0,0,0,0,0,0,0|0,0,0,0,0,0,0,0,0,1,0,1|0,0,0,0,0,0,0,0,0,0,0,0|0,0,0,0,0,0,0,1,0,0,0,0|0,0,0,0,0,0,0,0,0,0,0,0|0,0,0,0,0,0,0,0,0,0,0,0|0,0,0,0,0,0,0,0,0,0,0,0|0,0,0,0,0,0,0,0,0,0,0,0|0,0,0,0,0,0,0,0,0,0,0,0|0,0,0,0,0,0,0,0,0,0,0,0|0,0,0,0,0,0,0,0,0,0,0,0|0,0,0,0,0,0,0,0,0,0,0,0|0,0,0,0,0,0,0,0,1,0,0,0|0,0,0,0,0,0,0,0,1,0,0,0|0,0,0,0,0,0,0,0,1,0,0,0|0,0,0,0,0,0,0,1,0,0,0,0|0,0,0,0,0,0,0,0,1,0,0,0|0,0,0,0,0,0,0,0,1,0,0,0|0,0,0,0,0,0,0,0,1,0,0,0|0,0,0,0,0,0,0,0,1,0,0,0|0,0,0,0,0,0,0,0,0,0,0,0|0,0,0,0,0,0,0,1,0,1,0,1|0,0,0,0,0,0,0,0,1,0,0,0|0,0,0,0,0,0,0,0,1,0,0,0|0,0,0,0,0,0,0,0,1,0,0,0|0,0,0,0,0,0,0,1,0,1,0,1|0,0,0,0,0,0,0,0,1,0,0,0|0,0,0,0,0,0,0,0,1,0,0,0|0,0,0,0,0,0,0,0,1,0,0,0|0,0,0,0,0,0,0,0,0,0,0,0|0,0,0,0,0,0,0,0,0,0,0,0|0,0,0,0,0,0,0,1,0,0,0,0|0,0,0,0,0,0,0,0,0,1,0,1|0,0,0,0,0,0,0,0,1,0,0,0|0,0,0,0,0,0,0,0,1,0,0,0|0,0,0,0,0,0,0,0,1,0,0,0|0,0,0,0,0,0,0,0,1,0,0,0|0,0,0,0,0,0,0,0,0,0,0,0|0,0,0,0,0,0,0,0,1,0,0,0|0,0,0,0,0,0,0,0,1,0,0,0|0,0,0,0,0,1,0,1,1,1,0,0|0,0,0,0,0,0,0,0,0,0,0,0|0,0,0,0,0,0,0,0,1,0,0,0|0,0,0,0,0,0,0,0,1,0,0,0|0,0,0,0,0,1,0,0,1,0,0,0|0,0,0,0,0,0,0,0,1,0,0,0|0,0,0,0,0,0,0,0,1,0,0,0|0,0,0,0,0,0,0,0,1,0,0,0|0,0,0,0,0,0,0,0,1,0,0,0|0,0,0,1,0,0,0,1,0,1,1,0|0,0,0,0,0,0,0,0,0,1,0,0|0,0,0,1,0,0,0,1,0,1,1,0|0,0,0,1,0,0,0,1,0,1,1,0|0,0,0,0,0,0,0,0,0,0,0,0|0,0,0,1,0,0,0,1,0,1,1,0|0,0,0,1,0,0,0,1,0,1,1,0|0,0,0,0,0,0,0,0,0,0,0,0|0,0,0,1,0,0,0,1,0,1,1,0|0,0,0,1,0,0,0,1,0,1,1,0|0,0,0,1,0,0,0,1,0,1,1,0|0,0,0,0,0,0,0,0,0,1,0,0|0,0,0,1,0,0,0,1,0,1,1,0|0,0,0,0,0,0,0,1,0,1,0,1|0,0,0,1,0,0,0,1,0,1,1,0|0,0,0,0,0,0,0,0,1,0,0,0|0,0,0,0,0,0,0,0,0,0,0,0|0,0,0,0,0,0,0,0,0,1,0,0|0,0,0,0,0,0,0,0,1,0,0,0|0,0,0,0,0,0,0,0,1,0,0,0|0,0,0,0,0,0,0,0,1,0,0,0|0,0,0,1,0,0,0,1,0,1,1,0|0,0,0,0,0,0,0,0,1,0,0,0|0,0,0,0,0,0,0,0,1,0,0,0|0,0,0,0,0,0,0,0,1,0,0,0|0,0,0,0,0,0,0,0,1,0,0,0|0,0,0,0,0,0,0,0,0,1,0,0|0,0,0,0,0,0,0,1,1,0,0,0|0,0,0,0,0,0,0,0,1,0,0,0|0,0,0,0,0,0,0,0,1,0,0,0|0,0,0,0,0,0,0,0,1,0,0,0|0,0,0,0,0,0,0,0,0,0,0,0|0,0,0,0,0,0,0,0,1,0,0,0|0,0,0,0,0,0,0,0,1,0,0,0|0,0,0,0,0,0,0,0,1,0,0,0|0,0,0,0,0,0,0,0,1,0,0,0|0,0,0,0,0,0,0,1,0,1,0,1|0,0,0,0,0,0,0,0,1,0,0,0|0,0,0,0,0,0,0,0,1,0,0,0|0,0,0,0,0,0,0,0,1,0,0,0|0,0,0,0,0,0,0,0,1,0,0,0|0,0,0,0,0,0,0,0,1,0,0,0|0,0,0,0,0,0,0,0,1,0,0,0|0,0,0,0,0,0,0,0,1,0,0,0|0,0,0,0,0,0,0,0,1,0,0,0|0,0,0,0,0,0,0,0,1,0,0,0|0,0,0,0,0,0,0,0,1,0,0,0|0,0,0,0,0,0,0,0,1,0,0,0|0,0,0,0,0,0,0,0,1,0,0,0|0,0,0,0,0,0,0,0,1,0,0,0|0,0,0,0,0,0,0,0,1,0,0,0|0,0,0,0,0,0,0,0,1,0,0,0|0,0,0,0,0,0,0,0,1,0,0,0|0,0,0,0,0,0,0,1,1,0,0,0|0,0,0,0,0,0,0,0,1,0,0,0|0,0,0,0,0,0,0,0,1,0,0,0|0,0,0,0,0,0,0,0,1,0,0,0|0,0,0,0,0,0,0,0,1,0,0,0|0,0,0,0,0,0,0,0,1,0,0,0|0,0,0,0,0,0,0,0,1,0,0,0|0,0,0,0,0,0,0,0,1,0,0,0|0,0,0,0,0,0,0,0,1,0,0,0|0,0,0,0,0,0,0,0,1,0,0,0|0,0,0,0,0,0,0,0,0,1,0,0|0,0,0,0,0,0,0,0,1,0,0,0|0,0,0,0,0,0,0,1,1,0,0,0|0,0,0,0,0,0,0,0,0,0,0,0|0,0,0,0,0,0,0,0,1,0,0,0|0,0,0,0,0,0,0,0,1,0,0,0|0,0,0,0,0,0,0,0,0,0,0,0|0,0,0,0,0,0,0,0,1,0,0,0|0,0,0,0,0,0,0,0,1,0,0,0|0,0,0,0,0,0,0,1,0,1,0,0|0,0,0,0,0,0,0,0,1,0,0,0|0,0,0,0,0,0,0,0,0,0,1,0|0,0,0,0,0,0,0,0,1,0,0,0|0,0,0,0,0,0,0,0,0,0,0,0|0,0,0,0,0,0,0,0,1,1,0,0|0,0,0,0,0,0,0,0,1,0,0,0|0,0,0,0,0,0,0,0,1,0,0,0|0,0,0,0,0,0,0,0,1,0,0,0|0,0,0,1,0,0,0,1,0,1,1,0|0,0,0,0,0,0,0,0,1,0,0,0|0,0,0,0,0,0,0,0,1,0,0,0|0,0,0,0,0,0,0,0,1,0,0,0|0,0,0,0,0,0,0,0,1,0,0,0|0,0,0,0,0,0,0,0,0,0,0,0|0,0,0,0,0,0,0,0,1,0,0,0|0,0,0,0,0,0,0,0,1,0,0,0|0,0,0,0,0,0,0,0,1,0,0,0|0,0,0,0,0,0,0,0,1,0,0,0|0,0,0,0,0,0,0,0,1,0,0,0|0,0,0,0,0,0,0,0,1,0,0,0|0,0,0,0,0,0,0,0,1,0,0,0|0,0,0,0,0,0,0,0,1,0,0,0|0,0,0,0,0,0,0,0,1,0,0,0|0,0,0,0,0,0,0,0,1,0,0,0|0,0,0,0,0,0,0,0,1,0,0,0|0,0,0,0,0,0,0,0,1,0,0,0|0,0,0,0,0,0,0,0,1,0,0,0|0,0,0,0,0,0,0,0,1,0,0,0|0,0,0,0,0,0,0,0,1,0,0,0|0,0,0,0,0,0,0,0,1,0,0,0|0,0,0,0,0,0,0,0,0,0,0,0|0,0,0,0,0,0,0,0,0,0,0,0|0,0,0,0,0,0,0,0,1,0,0,0|0,0,0,0,0,0,0,1,1,0,0,0|0,0,0,0,0,0,0,0,1,0,0,0|0,0,0,0,0,0,0,0,0,0,0,0|0,0,0,0,0,0,0,0,1,0,0,0|0,0,0,0,0,0,0,0,1,0,0,0|0,0,0,0,0,0,0,0,1,0,0,0|0,0,0,0,0,0,0,0,1,0,0,0|0,0,0,0,0,0,0,0,1,0,0,0|0,0,0,0,0,0,0,0,1,0,0,0|0,0,0,0,0,0,0,0,1,0,0,0|0,0,0,0,0,0,0,0,1,0,0,0|0,0,0,0,0,0,0,0,1,0,0,0|0,0,0,0,0,0,0,0,1,0,0,0|0,0,0,0,0,0,0,0,1,0,0,0|0,0,0,0,0,0,0,0,1,0,0,0|0,0,0,0,0,0,0,0,1,0,0,0|0,0,0,0,0,0,0,0,1,0,0,0|0,0,0,0,0,0,0,0,1,0,0,0|0,0,0,0,0,0,0,0,0,0,0,0|0,0,0,0,0,0,0,0,0,1,0,0|0,0,0,0,0,0,0,0,0,0,0,0|0,0,0,0,0,0,0,0,0,0,0,0|0,0,0,1,0,0,0,0,0,0,1,0|0,0,0,0,0,0,0,0,0,0,0,0|0,0,0,0,0,0,0,0,0,0,0,0|0,0,0,0,0,0,0,0,0,0,0,0|0,0,0,0,0,0,0,0,0,0,0,0|0,0,0,0,0,0,0,0,0,0,0,0|0,0,0,0,0,0,0,0,0,0,0,0|0,0,0,0,0,0,0,0,0,1,0,0|0,0,0,1,0,0,0,0,0,0,1,0|0,0,0,0,0,0,0,0,1,0,0,0|0,0,0,0,0,0,0,0,1,0,0,0|0,0,0,0,0,0,0,0,1,0,0,0|0,0,0,0,0,0,0,0,1,0,0,0|0,0,0,0,0,0,0,0,1,0,0,0|0,0,0,0,0,0,0,0,1,0,0,0|0,0,0,0,0,0,0,1,1,0,0,0|0,0,0,0,0,0,0,0,1,0,0,0|0,0,0,0,0,0,0,0,0,1,0,1|0,0,0,0,0,0,0,0,1,0,0,0|0,0,0,0,0,0,0,0,1,0,0,0|0,0,0,0,0,0,0,0,0,0,0,0|0,0,0,0,0,0,0,0,1,0,0,0|0,0,0,0,0,0,0,0,0,1,0,0|0,0,0,0,0,0,0,0,0,0,0,0|0,0,0,0,0,0,0,0,1,0,0,0|0,0,0,0,0,0,0,0,1,0,0,0|0,0,0,0,0,0,0,0,1,0,0,0|0,0,0,0,0,0,0,0,0,1,0,0|0,0,0,0,0,0,0,0,0,0,0,0|0,0,0,0,0,0,0,0,0,0,0,0|0,0,0,0,0,0,0,0,1,0,0,0|0,0,0,0,0,0,0,0,1,0,0,0|0,0,0,1,0,0,0,1,0,1,1,0|0,0,0,0,0,0,0,0,1,0,0,0|0,0,0,0,0,0,0,0,1,0,0,0|0,0,0,0,0,0,0,0,1,0,0,0|0,0,0,0,0,0,0,0,1,0,0,0|0,0,0,0,0,0,0,0,1,0,0,0|0,0,0,1,0,0,0,1,0,1,1,0|0,0,0,0,0,0,0,0,1,0,0,0|0,0,0,0,0,0,0,0,1,0,0,0|0,0,0,0,0,0,0,0,1,0,0,0|0,0,0,0,0,0,0,0,1,0,0,0|0,0,0,0,0,0,0,0,1,0,0,0|0,0,0,0,0,0,0,0,1,0,0,0|0,0,0,0,0,0,0,0,1,0,0,0|0,0,0,0,0,0,0,0,1,0,0,0|0,0,0,0,0,0,0,0,1,0,0,0|0,0,0,0,0,0,0,0,1,0,0,0|0,0,0,0,0,0,0,0,1,0,0,0|0,0,0,0,0,0,0,0,1,0,0,0|0,0,0,0,0,0,0,0,1,0,0,0|0,0,0,0,0,0,0,0,0,0,0,0|0,0,0,0,0,0,0,0,1,0,0,0|0,0,0,0,0,0,0,0,1,0,0,0|];
vehicles = [|0,1|0,1|0,1|0,1|0,1|0,1|0,1|0,1|0,1|0,1|0,2|0,2|0,2|0,2|0,2|0,2|0,2|0,2|0,2|0,2|0,2|0,2|0,2|0,2|0,2|0,3|0,3|0,3|0,3|0,3|0,3|0,3|0,3|0,3|0,3|0,3|0,3|0,3|0,3|0,3|0,4|0,4|0,4|0,4|0,4|0,5|0,5|0,5|0,5|0,5|0,5|0,5|0,5|0,5|0,6|0,6|0,6|0,7|0,7|0,7|0,8|0,8|0,8|0,8|0,8|0,8|0,8|0,9|0,9|0,9|0,9|0,9|0,9|0,9|0,9|0,9|0,9|0,9|0,9|0,9|0,9|0,10|0,10|0,10|0,10|0,10|0,10|0,10|0,10|0,10|0,10|0,10|0,10|0,10|0,10|0,2|0,2|0,2|0,3|0,3|0,3|0,3|0,3|0,3|0,3|0,11|0,11|0,11|0,11|0,11|0,11|0,11|0,11|0,11|0,11|0,11|0,11|0,11|0,11|0,12|0,12|0,12|1,13|1,13|1,13|1,13|1,13|1,13|1,13|1,13|1,13|1,13|1,13|1,13|1,13|1,13|1,13|1,14|1,14|1,14|1,14|1,14|1,14|1,14|1,14|1,14|1,14|1,14|1,14|1,14|1,14|1,14|1,13|1,13|1,13|1,13|1,13|1,13|1,13|1,13|1,13|1,13|1,13|1,13|1,13|1,13|1,13|1,15|1,15|1,15|1,15|1,15|1,15|1,15|1,15|1,15|1,15|1,15|1,15|1,15|1,15|1,15|1,13|1,13|1,13|1,13|1,13|1,13|1,13|1,13|1,13|1,13|1,13|1,13|1,13|1,13|1,13|1,16|1,16|1,16|1,16|1,16|1,16|1,16|1,16|1,16|1,16|1,16|1,16|1,16|1,16|1,16|1,13|1,13|1,13|1,13|1,13|1,13|1,13|1,13|1,13|1,13|1,13|1,13|1,13|1,13|1,13|1,14|1,14|1,14|1,14|1,14|1,14|1,14|1,14|1,14|1,14|1,14|1,14|1,14|1,14|1,14|1,13|1,13|1,13|1,13|1,13|1,13|1,13|1,13|1,13|1,13|1,13|1,13|1,13|1,13|1,13|1,7|1,7|1,7|1,7|1,7|1,7|1,7|1,7|1,7|1,7|1,7|1,7|1,7|1,7|1,7|1,13|1,13|1,13|1,13|1,13|1,13|1,13|1,13|1,13|1,13|1,13|1,13|1,13|1,13|1,13|1,1|1,1|1,1|1,1|1,1|1,1|1,1|1,1|1,1|1,1|1,1|1,1|1,1|1,1|1,1|1,13|1,13|1,13|1,13|1,13|1,13|1,13|1,13|1,13|1,13|1,13|1,13|1,13|1,13|1,13|1,4|1,4|1,4|1,4|1,4|1,4|1,4|1,4|1,4|1,4|1,4|1,4|1,4|1,4|1,4|1,13|1,13|1,13|1,13|1,13|1,13|1,13|1,13|1,13|1,13|1,13|1,13|1,13|1,13|1,13|1,14|1,14|1,14|1,14|1,14|1,14|1,14|1,14|1,14|1,14|1,14|1,14|1,14|1,14|1,14|1,13|1,13|1,13|1,13|1,13|1,13|1,13|1,13|1,13|1,13|1,13|1,13|1,13|1,13|1,13|1,15|1,15|1,15|1,15|1,15|1,15|1,15|1,15|1,15|1,15|1,15|1,15|1,15|1,15|1,15|1,13|1,13|1,13|1,13|1,13|1,13|1,13|1,13|1,13|1,13|1,13|1,13|1,13|1,13|1,13|1,16|1,16|1,16|1,16|1,16|1,16|1,16|1,16|1,16|1,16|1,16|1,16|1,16|1,16|1,16|1,13|1,13|1,13|1,13|1,13|1,13|1,13|1,13|1,13|1,13|1,13|1,13|1,13|1,13|1,13|1,5|1,5|1,5|1,5|1,5|1,5|1,5|1,5|1,5|1,5|1,5|1,5|1,5|1,5|1,5|1,13|1,13|1,13|1,13|1,13|1,13|1,13|1,13|1,13|1,13|1,13|1,13|1,13|1,13|1,13|1,14|1,14|1,14|1,14|1,14|1,14|1,14|1,14|1,14|1,14|1,14|1,14|1,14|1,14|1,14|1,13|1,13|1,13|1,13|1,13|1,13|1,13|1,13|1,13|1,13|1,13|1,13|1,13|1,13|1,13|1,7|1,7|1,7|1,7|1,7|1,7|1,7|1,7|1,7|1,7|1,7|1,7|1,7|1,7|1,7|1,13|1,13|1,13|1,13|1,13|1,13|1,13|1,13|1,13|1,13|1,13|1,13|1,13|1,13|1,13|1,1|1,1|1,1|1,1|1,1|1,1|1,1|1,1|1,1|1,1|1,1|1,1|1,1|1,1|1,1|1,13|1,13|1,13|1,13|1,13|1,13|1,13|1,13|1,13|1,13|1,13|1,13|1,13|1,13|1,13|1,4|1,4|1,4|1,4|1,4|1,4|1,4|1,4|1,4|1,4|1,4|1,4|1,4|1,4|1,4|1,13|1,13|1,13|1,13|1,13|1,13|1,13|1,13|1,13|1,13|1,13|1,13|1,13|1,13|1,13|1,15|1,15|1,15|1,15|1,15|1,15|1,15|1,15|1,15|1,15|1,15|1,15|1,15|1,15|1,15|1,13|1,13|1,13|1,13|1,13|1,13|1,13|1,13|1,13|1,13|1,13|1,13|1,13|1,13|1,13|1,16|1,16|1,16|1,16|1,16|1,16|1,16|1,16|1,16|1,16|1,16|1,16|1,16|1,16|1,16|1,13|1,13|1,13|1,13|1,13|1,13|1,13|1,13|1,13|1,13|1,13|1,13|1,13|1,13|1,13|1,14|1,14|1,14|1,14|1,14|1,14|1,14|1,14|1,14|1,14|1,14|1,14|1,14|1,14|1,14|1,13|1,13|1,13|1,13|1,13|1,13|1,13|1,13|1,13|1,13|1,13|1,13|1,13|1,13|1,13|1,7|1,7|1,7|1,7|1,7|1,7|1,7|1,7|1,7|1,7|1,7|1,7|1,7|1,7|1,7|1,13|1,13|1,13|1,13|1,13|1,13|1,13|1,13|1,13|1,13|1,13|1,13|1,13|1,13|1,13|1,5|1,5|1,5|1,5|1,5|1,5|1,5|1,5|1,5|1,5|1,5|1,5|1,5|1,5|1,5|1,13|1,13|1,13|1,13|1,13|1,13|1,13|1,13|1,13|1,13|1,13|1,13|1,13|1,13|1,13|1,14|1,14|1,14|1,14|1,14|1,14|1,14|1,14|1,14|1,14|1,14|1,14|1,14|1,14|1,14|1,13|1,13|1,13|1,13|1,13|1,13|1,13|1,13|1,13|1,13|1,13|1,13|1,13|1,13|1,13|1,8|1,8|1,8|1,8|1,8|1,8|1,8|1,8|1,8|1,8|1,8|1,8|1,8|1,8|1,8|1,13|1,13|1,13|1,13|1,13|1,13|1,13|1,13|1,13|1,13|1,13|1,13|1,13|1,13|1,13|1,1|1,1|1,1|1,1|1,1|1,1|1,1|1,1|1,1|1,1|1,1|1,1|1,1|1,1|1,1|1,13|1,13|1,13|1,13|1,13|1,13|1,13|1,13|1,13|1,13|1,13|1,13|1,13|1,13|1,13|1,15|1,15|1,15|1,15|1,15|1,15|1,15|1,15|1,15|1,15|1,15|1,15|1,15|1,15|1,15|1,13|1,13|1,13|1,13|1,13|1,13|1,13|1,13|1,13|1,13|1,13|1,13|1,13|1,13|1,13|1,16|1,16|1,16|1,16|1,16|1,16|1,16|1,16|1,16|1,16|1,16|1,16|1,16|1,16|1,16|1,13|1,13|1,13|1,13|1,13|1,13|1,13|1,13|1,13|1,13|1,13|1,13|1,13|1,13|1,13|1,4|1,4|1,4|1,4|1,4|1,4|1,4|1,4|1,4|1,4|1,4|1,4|1,4|1,4|1,4|1,13|1,13|1,13|1,13|1,13|1,13|1,13|1,13|1,13|1,13|1,13|1,13|1,13|1,13|1,13|1,6|1,6|1,6|1,6|1,6|1,6|1,6|1,6|1,6|1,6|1,6|1,6|1,6|1,6|1,6|1,14|1,14|1,14|1,14|1,14|1,14|1,14|1,14|1,14|1,14|1,14|1,14|1,14|1,14|1,14|1,13|1,13|1,13|1,13|1,13|1,13|1,13|1,13|1,13|1,13|1,13|1,13|1,13|1,13|1,13|1,7|1,7|1,7|1,7|1,7|1,7|1,7|1,7|1,7|1,7|1,7|1,7|1,7|1,7|1,7|1,13|1,13|1,13|1,13|1,13|1,13|1,13|1,13|1,13|1,13|1,13|1,13|1,13|1,13|1,13|1,15|1,15|1,15|1,15|1,15|1,15|1,15|1,15|1,15|1,15|1,15|1,15|1,15|1,15|1,15|1,13|1,13|1,13|1,13|1,13|1,13|1,13|1,13|1,13|1,13|1,13|1,13|1,13|1,13|1,13|1,1|1,1|1,1|1,1|1,1|1,1|1,1|1,1|1,1|1,1|1,1|1,1|1,1|1,1|1,1|1,13|1,13|1,13|1,13|1,16|1,16|1,16|1,16|1,16|1,16|1,16|1,16|1,16|1,16|1,16|1,16|1,16|1,16|1,16|1,14|1,14|1,14|1,14|1,14|1,14|1,14|1,14|1,14|1,14|1,14|1,14|1,14|1,14|1,14|1,3|1,3|1,3|1,3|1,3|1,3|1,3|1,3|1,3|1,3|1,3|1,3|1,3|1,3|1,3|1,5|1,5|1,5|1,5|1,5|1,5|1,5|1,5|1,5|1,5|1,5|1,5|1,5|1,5|1,5|1,4|1,4|1,4|1,4|1,4|1,4|1,4|1,4|1,4|1,4|1,4|1,4|1,4|1,4|1,4|1,14|1,14|1,14|1,14|1,14|1,14|1,14|1,7|1,7|1,7|1,7|1,7|1,7|1,7|1,7|1,7|1,7|1,7|1,7|1,7|1,7|1,7|1,15|1,15|1,15|1,15|1,15|1,15|1,15|1,15|1,15|1,15|1,15|1,15|1,16|1,16|1,16|1,16|1,16|1,16|1,16|1,16|1,16|1,16|1,8|1,8|1,8|1,8|1,8|1,8|1,8|1,8|1,8|1,8|1,8|1,8|1,8|1,8|1,8|1,1|1,1|1,1|1,1|1,1|1,1|1,1|1,1|1,1|1,1|1,1|1,5|1,5|1,5|1,5|1,5|1,5|1,5|1,5|1,5|1,5|1,2|1,2|1,2|1,2|1,2|1,2|1,2|1,2|1,2|1,2|1,2|1,2|1,2|1,2|1,2|1,10|1,10|1,10|1,10|1,10|1,10|1,10|1,10|1,10|1,10|1,10|1,10|1,10|1,10|1,10|1,4|1,4|1,4|1,4|1,4|1,4|1,6|1,6|1,6|1,6|1,6|1,6|1,6|1,6|1,6|1,6|1,6|1,6|1,6|1,6|1,6|1,3|1,3|1,3|1,3|1,3|1,3|1,3|1,3|1,3|1,3|1,3|1,3|1,3|1,8|1,8|1,8|1,8|1,8|1,8|1,6|1,6|1,9|1,9|1,9|1,9|1,9|1,9|1,9|1,9|1,9|1,9|1,9|1,9|1,9|1,9|1,9|1,2|1,2|1,2|1,2|1,2|1,2|1,2|1,10|1,10|1,10|1,10|1,10|1,10|1,10|1,11|1,11|1,11|1,11|1,11|1,11|1,12|1,12|1,12|];
numVehicles = 1306;